(declare-const delta_tmp Int)
(declare-const delta_s Int)
(declare-const delta_tmp___0 Int)
(assert (exists
         ((|tmp___0'?1| Int) (|tmp'?2| Int) (|s'?3| Int) (tmp?4 Int)
            (s?5 Int) (tmp___0?6 Int))
         (and (or (and (= |s'?3| s?5) (= |s'?3| 0) (= |s'?3| s?5)
                         (= |s'?3| 0))
                    (and (= |s'?3| 0) (= |s'?3| 0) (= |s'?3| s?5)
                           (= |s'?3| s?5))) (= delta_s (+ |s'?3| (- s?5)))
                (= delta_tmp (+ |tmp'?2| (- tmp?4)))
                (= delta_tmp___0 (+ |tmp___0'?1| (- tmp___0?6))))))
(check-sat)
